(declare-const ret Int)
(declare-const term_to_project_onto3_integralized Int)
(declare-const param0@width Int)
(declare-const term_to_project_onto9_integralized Int)
(declare-const term_to_project_onto7_integralized Int)
(declare-const term_to_project_onto2_integralized Int)
(declare-const term_to_project_onto1_integralized Int)
(declare-const term_to_project_onto0_integralized Int)
(declare-const term_to_project_onto17_integralized Int)
(declare-const term_to_project_onto5_integralized Int)
(declare-const return@pos Int)
(declare-const term_to_project_onto12_integralized Int)
(declare-const term_to_project_onto19_integralized Int)
(declare-const term_to_project_onto_integralized Int)
(declare-const term_to_project_onto6_integralized Int)
(declare-const term_to_project_onto11_integralized Int)
(declare-const param0 Int)
(declare-const return@width Int)
(declare-const return Int)
(declare-const term_to_project_onto13_integralized Int)
(declare-const term_to_project_onto14_integralized Int)
(declare-const term_to_project_onto16_integralized Int)
(declare-const term_to_project_onto8_integralized Int)
(declare-const term_to_project_onto10_integralized Int)
(declare-const term_to_project_onto18_integralized Int)
(declare-const term_to_project_onto4_integralized Int)
(declare-const term_to_project_onto15_integralized Int)
(declare-const param0@pos Int)
(assert (exists
         ((|return@width'?1?1| Int) (|mem_19@width'?2?2| Int)
            (|mem_18@width'?3?3| Int) (|return@pos'?4?4| Int)
            (|mem_19@pos'?5?5| Int) (|mem_18@pos'?6?6| Int)
            (|return'?7?7| Int) (|mem_19'?8?8| Int) (|mem_18'?9?9| Int)
            (|offset'?10?10| Int) (|ret'?11?11| Int)
            (phi_param2@width?12?12 Int) (phi_param1@width?13?13 Int)
            (phi_param0@width?14?14 Int) (phi_return@width?15?15 Int)
            (type_err?16?16 Int) (phi_param2@pos?17?17 Int)
            (phi_param1@pos?18?18 Int) (phi_param0@pos?19?19 Int)
            (phi_return@pos?20?20 Int) (type_err?21?21 Int)
            (phi_param2?22?22 Int) (phi_param1?23?23 Int)
            (phi_param0?24?24 Int) (tr?25?25 Int) (phi_return?26?26 Int)
            (phi_ret?27?27 Int) (phi_j?28?28 Int) (havoc?29?29 Int)
            (tr?30?30 Int) (tr?31?31 Int) (phi_param2@width?32?32 Int)
            (phi_param1@width?33?33 Int) (phi_param0@width?34?34 Int)
            (phi_return@width?35?35 Int) (type_err?36?36 Int)
            (phi_mem_19@width?37?37 Int) (phi_mem_18@width?38?38 Int)
            (phi_param2@pos?39?39 Int) (phi_param1@pos?40?40 Int)
            (phi_param0@pos?41?41 Int) (phi_return@pos?42?42 Int)
            (type_err?43?43 Int) (phi_mem_19@pos?44?44 Int)
            (phi_mem_18@pos?45?45 Int) (phi_param2?46?46 Int)
            (phi_param1?47?47 Int) (phi_param0?48?48 Int) (tr?49?49 Int)
            (phi_return?50?50 Int) (phi_mem_19?51?51 Int)
            (phi_mem_18?52?52 Int) (phi_ret?53?53 Int) (phi_j?54?54 Int)
            (tr?55?55 Int) (phi_mem_19@width?56?56 Int)
            (phi_mem_18@width?57?57 Int) (phi_mem_19@pos?58?58 Int)
            (phi_mem_18@pos?59?59 Int) (phi_mem_19?60?60 Int)
            (phi_mem_18?61?61 Int) (tr?62?62 Int)
            (phi_mem_19@width?63?63 Int) (phi_mem_19@pos?64?64 Int)
            (phi_mem_19?65?65 Int) (havoc?66?66 Int) (havoc?67?67 Int)
            (tr?68?68 Int) (tr?69?69 Int) (|param0'?70?70| Int)
            (|param1'?71?71| Int) (|param2'?72?72| Int)
            (|param0@pos'?73?73| Int) (|param1@pos'?74?74| Int)
            (|param2@pos'?75?75| Int) (|param0@width'?76?76| Int)
            (|param1@width'?77?77| Int) (|param2@width'?78?78| Int)
            (|j'?79?79| Int) (K?80?80 Int) (type_err?81?81 Int)
            (type_err?82?82 Int) (tr?83?83 Int) (tr?84?84 Int)
            (|param2@width'?85?85| Int) (|param1@width'?86?86| Int)
            (|param0@width'?87?87| Int) (|param2@pos'?88?88| Int)
            (|param1@pos'?89?89| Int) (|param0@pos'?90?90| Int)
            (|param2'?91?91| Int) (|param1'?92?92| Int) (|param0'?93?93| Int)
            (|j'?94?94| Int) (param2@width?95?95 Int)
            (param1@width?96?96 Int) (param2@pos?97?97 Int)
            (param1@pos?98?98 Int) (param2?99?99 Int) (param1?100?100 Int)
            (mem_18?101?101 Int) (mem_18@pos?102?102 Int)
            (mem_18@width?103?103 Int) (mem_19?104?104 Int)
            (mem_19@pos?105?105 Int) (mem_19@width?106?106 Int)
            (j?107?107 Int) (offset?108?108 Int) (tmp_cnt?109?109 Int)
            (i?110?110 Int))
         (and (<= (- offset?108?108) 0) (<= (- tmp_cnt?109?109) 0)
                (<= (- i?110?110) 0)
                (<= (+ (- tmp_cnt?109?109) offset?108?108 1) 0)
                (or (<= (+ tr?83?83 1) 0) (<= (+ (- tr?83?83) 1) 0))
                (or (<= tr?83?83 0) (<= (+ (- tr?83?83) 2) 0))
                (or (and (or (<= (+ tr?83?83 2) 0) (<= (- tr?83?83) 0))
                           (= (+ (- |j'?79?79|) K?80?80) 0)
                           (or (and (= K?80?80 0)
                                      (= (+ (- |param2@width'?78?78|)
                                              param2@width?95?95) 0)
                                      (= (+ (- |param1@width'?77?77|)
                                              param1@width?96?96) 0)
                                      (= (+ (- |param0@width'?76?76|) 1) 0)
                                      (= (+ (- |param2@pos'?75?75|)
                                              param2@pos?97?97) 0)
                                      (= (+ (- |param1@pos'?74?74|)
                                              param1@pos?98?98) 0)
                                      (= (- |param0@pos'?73?73|) 0)
                                      (= (+ (- |param2'?72?72|) param2?99?99) 0)
                                      (= (+ (- |param1'?71?71|)
                                              param1?100?100) 0)
                                      (= (+ (- |param0'?70?70|) tr?84?84) 0)
                                      (= (- |j'?79?79|) 0))
                                 (and (<= (+ (- K?80?80) 1) 0)
                                        (<= (- i?110?110) 0)
                                        (<= (+ (- |j'?79?79|) 1) 0)
                                        (<= (- i?110?110) 0)))
                           (<= (- K?80?80) 0) (<= (- |j'?79?79|) 0)
                           (<= (- i?110?110) 0) (<= (- tr?69?69) 0)
                           (<= tr?68?68 0) (<= (+ (- havoc?67?67) -1) 0)
                           (<= (+ havoc?67?67 1) 0)
                           (or (and (<= (+ havoc?66?66 -20) 0)
                                      (or (and (<= havoc?66?66 0)
                                                 (= (+ (- phi_mem_19?65?65)
                                                         mem_19?104?104) 0)
                                                 (= (+ (- phi_mem_19@pos?64?64)
                                                         mem_19@pos?105?105) 0)
                                                 (= (+ (- phi_mem_19@width?63?63)
                                                         mem_19@width?106?106) 0))
                                            (and (<= (+ (- havoc?66?66) 1) 0)
                                                   (= (+ tr?62?62
                                                           (- phi_mem_19?65?65)
                                                           i?110?110) 0)
                                                   (= (+ (- phi_mem_19@pos?64?64)
                                                           i?110?110) 0)
                                                   (= (+ (- phi_mem_19@width?63?63)
                                                           1) 0)))
                                      (= (+ (- phi_mem_18?61?61)
                                              mem_18?101?101) 0)
                                      (= (+ (- phi_mem_19?60?60)
                                              phi_mem_19?65?65) 0)
                                      (= (+ (- phi_mem_18@pos?59?59)
                                              mem_18@pos?102?102) 0)
                                      (= (+ (- phi_mem_19@pos?58?58)
                                              phi_mem_19@pos?64?64) 0)
                                      (= (+ (- phi_mem_18@width?57?57)
                                              mem_18@width?103?103) 0)
                                      (= (+ (- phi_mem_19@width?56?56)
                                              phi_mem_19@width?63?63) 0))
                                 (and (<= (+ (- havoc?66?66) 21) 0)
                                        (= (+ tr?55?55 (- phi_mem_18?61?61)
                                                i?110?110) 0)
                                        (= (+ (- phi_mem_19?60?60)
                                                mem_19?104?104) 0)
                                        (= (+ (- phi_mem_18@pos?59?59)
                                                i?110?110) 0)
                                        (= (+ (- phi_mem_19@pos?58?58)
                                                mem_19@pos?105?105) 0)
                                        (= (+ (- phi_mem_18@width?57?57) 1) 0)
                                        (= (+ (- phi_mem_19@width?56?56)
                                                mem_19@width?106?106) 0)))
                           (= (+ (- phi_j?54?54) |j'?79?79|) 0)
                           (= (+ (- phi_ret?53?53) havoc?67?67) 0)
                           (= (+ (- phi_mem_18?52?52) phi_mem_18?61?61) 0)
                           (= (+ (- phi_mem_19?51?51) phi_mem_19?60?60) 0)
                           (= (+ (- phi_return?50?50) havoc?67?67) 0)
                           (= (+ (- phi_param0?48?48) tr?49?49) 0)
                           (= (+ (- phi_param1?47?47) |param1'?71?71|) 0)
                           (= (+ (- phi_param2?46?46) |param2'?72?72|) 0)
                           (= (+ (- phi_mem_18@pos?45?45)
                                   phi_mem_18@pos?59?59) 0)
                           (= (+ (- phi_mem_19@pos?44?44)
                                   phi_mem_19@pos?58?58) 0)
                           (= (+ (- phi_return@pos?42?42) type_err?43?43) 0)
                           (= (- phi_param0@pos?41?41) 0)
                           (= (+ (- phi_param1@pos?40?40) |param1@pos'?74?74|) 0)
                           (= (+ (- phi_param2@pos?39?39) |param2@pos'?75?75|) 0)
                           (= (+ (- phi_mem_18@width?38?38)
                                   phi_mem_18@width?57?57) 0)
                           (= (+ (- phi_mem_19@width?37?37)
                                   phi_mem_19@width?56?56) 0)
                           (= (+ (- phi_return@width?35?35) type_err?36?36) 0)
                           (= (+ (- phi_param0@width?34?34) 1) 0)
                           (= (+ (- phi_param1@width?33?33)
                                   |param1@width'?77?77|) 0)
                           (= (+ (- phi_param2@width?32?32)
                                   |param2@width'?78?78|) 0))
                      (and (or (and (or (<= (+ tr?83?83 2) 0)
                                          (<= (- tr?83?83) 0))
                                      (= (+ (- |j'?79?79|) K?80?80) 0)
                                      (or (and (= K?80?80 0)
                                                 (= (+ (- |param2@width'?78?78|)
                                                         param2@width?95?95) 0)
                                                 (= (+ (- |param1@width'?77?77|)
                                                         param1@width?96?96) 0)
                                                 (= (+ (- |param0@width'?76?76|)
                                                         1) 0)
                                                 (= (+ (- |param2@pos'?75?75|)
                                                         param2@pos?97?97) 0)
                                                 (= (+ (- |param1@pos'?74?74|)
                                                         param1@pos?98?98) 0)
                                                 (= (- |param0@pos'?73?73|) 0)
                                                 (= (+ (- |param2'?72?72|)
                                                         param2?99?99) 0)
                                                 (= (+ (- |param1'?71?71|)
                                                         param1?100?100) 0)
                                                 (= (+ (- |param0'?70?70|)
                                                         tr?84?84) 0)
                                                 (= (- |j'?79?79|) 0))
                                            (and (<= (+ (- K?80?80) 1) 0)
                                                   (<= (- i?110?110) 0)
                                                   (<= (+ (- |j'?79?79|) 1) 0)
                                                   (<= (- i?110?110) 0)))
                                      (<= (- K?80?80) 0)
                                      (<= (- |j'?79?79|) 0)
                                      (<= (- i?110?110) 0)
                                      (<= (- tr?31?31) 0) (<= tr?30?30 0)
                                      (or (<= (+ havoc?29?29 2) 0)
                                            (<= (- havoc?29?29) 0))
                                      (= (+ (- phi_j?28?28) |j'?79?79|) 0)
                                      (= (+ (- phi_ret?27?27) havoc?29?29) 0)
                                      (= (+ (- phi_return?26?26) havoc?29?29) 0)
                                      (= (+ (- phi_param0?24?24) tr?25?25) 0)
                                      (= (+ (- phi_param1?23?23)
                                              |param1'?71?71|) 0)
                                      (= (+ (- phi_param2?22?22)
                                              |param2'?72?72|) 0)
                                      (= (+ (- phi_return@pos?20?20)
                                              type_err?21?21) 0)
                                      (= (- phi_param0@pos?19?19) 0)
                                      (= (+ (- phi_param1@pos?18?18)
                                              |param1@pos'?74?74|) 0)
                                      (= (+ (- phi_param2@pos?17?17)
                                              |param2@pos'?75?75|) 0)
                                      (= (+ (- phi_return@width?15?15)
                                              type_err?16?16) 0)
                                      (= (+ (- phi_param0@width?14?14) 1) 0)
                                      (= (+ (- phi_param1@width?13?13)
                                              |param1@width'?77?77|) 0)
                                      (= (+ (- phi_param2@width?12?12)
                                              |param2@width'?78?78|) 0))
                                 (and (= (+ tr?83?83 1) 0)
                                        (= (+ j?107?107 (- phi_j?28?28)) 0)
                                        (= (+ (- phi_ret?27?27) tr?83?83) 0)
                                        (= (+ (- phi_return?26?26) tr?83?83) 0)
                                        (= (+ (- phi_param0?24?24) tr?84?84) 0)
                                        (= (+ (- phi_param1?23?23)
                                                param1?100?100) 0)
                                        (= (+ (- phi_param2?22?22)
                                                param2?99?99) 0)
                                        (= (+ type_err?82?82
                                                (- phi_return@pos?20?20)) 0)
                                        (= (- phi_param0@pos?19?19) 0)
                                        (= (+ (- phi_param1@pos?18?18)
                                                param1@pos?98?98) 0)
                                        (= (+ (- phi_param2@pos?17?17)
                                                param2@pos?97?97) 0)
                                        (= (+ type_err?81?81
                                                (- phi_return@width?15?15)) 0)
                                        (= (+ (- phi_param0@width?14?14) 1) 0)
                                        (= (+ (- phi_param1@width?13?13)
                                                param1@width?96?96) 0)
                                        (= (+ (- phi_param2@width?12?12)
                                                param2@width?95?95) 0)))
                             (= (+ phi_j?28?28 (- phi_j?54?54)) 0)
                             (= (+ phi_ret?27?27 (- phi_ret?53?53)) 0)
                             (= (+ (- phi_mem_18?52?52) mem_18?101?101) 0)
                             (= (+ (- phi_mem_19?51?51) mem_19?104?104) 0)
                             (= (+ phi_return?26?26 (- phi_return?50?50)) 0)
                             (= (+ phi_param0?24?24 (- phi_param0?48?48)) 0)
                             (= (+ phi_param1?23?23 (- phi_param1?47?47)) 0)
                             (= (+ phi_param2?22?22 (- phi_param2?46?46)) 0)
                             (= (+ (- phi_mem_18@pos?45?45)
                                     mem_18@pos?102?102) 0)
                             (= (+ (- phi_mem_19@pos?44?44)
                                     mem_19@pos?105?105) 0)
                             (= (+ phi_return@pos?20?20
                                     (- phi_return@pos?42?42)) 0)
                             (= (+ phi_param0@pos?19?19
                                     (- phi_param0@pos?41?41)) 0)
                             (= (+ phi_param1@pos?18?18
                                     (- phi_param1@pos?40?40)) 0)
                             (= (+ phi_param2@pos?17?17
                                     (- phi_param2@pos?39?39)) 0)
                             (= (+ (- phi_mem_18@width?38?38)
                                     mem_18@width?103?103) 0)
                             (= (+ (- phi_mem_19@width?37?37)
                                     mem_19@width?106?106) 0)
                             (= (+ phi_return@width?15?15
                                     (- phi_return@width?35?35)) 0)
                             (= (+ phi_param0@width?14?14
                                     (- phi_param0@width?34?34)) 0)
                             (= (+ phi_param1@width?13?13
                                     (- phi_param1@width?33?33)) 0)
                             (= (+ phi_param2@width?12?12
                                     (- phi_param2@width?32?32)) 0)))
                (= (+ |param2@width'?85?85| (- phi_param2@width?32?32)) 0)
                (= (+ |param1@width'?86?86| (- phi_param1@width?33?33)) 0)
                (= (+ |param0@width'?87?87| (- phi_param0@width?34?34)) 0)
                (= (+ |return@width'?1?1| (- phi_return@width?35?35)) 0)
                (= (+ |mem_19@width'?2?2| (- phi_mem_19@width?37?37)) 0)
                (= (+ |mem_18@width'?3?3| (- phi_mem_18@width?38?38)) 0)
                (= (+ |param2@pos'?88?88| (- phi_param2@pos?39?39)) 0)
                (= (+ |param1@pos'?89?89| (- phi_param1@pos?40?40)) 0)
                (= (+ |param0@pos'?90?90| (- phi_param0@pos?41?41)) 0)
                (= (+ |return@pos'?4?4| (- phi_return@pos?42?42)) 0)
                (= (+ |mem_19@pos'?5?5| (- phi_mem_19@pos?44?44)) 0)
                (= (+ |mem_18@pos'?6?6| (- phi_mem_18@pos?45?45)) 0)
                (= (+ |param2'?91?91| (- phi_param2?46?46)) 0)
                (= (+ |param1'?92?92| (- phi_param1?47?47)) 0)
                (= (+ |param0'?93?93| (- phi_param0?48?48)) 0)
                (= (+ |return'?7?7| (- phi_return?50?50)) 0)
                (= (+ |mem_19'?8?8| (- phi_mem_19?51?51)) 0)
                (= (+ |mem_18'?9?9| (- phi_mem_18?52?52)) 0)
                (= (+ |offset'?10?10| (- offset?108?108) -1) 0)
                (= (+ |ret'?11?11| (- phi_ret?53?53)) 0)
                (= (+ |j'?94?94| (- phi_j?54?54)) 0)
                (= (+ term_to_project_onto19_integralized
                        (- (+ |j'?94?94| (- j?107?107)))) 0)
                (= (+ term_to_project_onto18_integralized
                        (- (+ |ret'?11?11| (- ret)))) 0)
                (= (+ term_to_project_onto17_integralized
                        (- (+ |offset'?10?10| (- offset?108?108)))) 0)
                (= (+ term_to_project_onto16_integralized
                        (- (+ |mem_18'?9?9| (- mem_18?101?101)))) 0)
                (= (+ term_to_project_onto15_integralized
                        (- (+ |mem_19'?8?8| (- mem_19?104?104)))) 0)
                (= (+ term_to_project_onto14_integralized
                        (- (+ |return'?7?7| (- return)))) 0)
                (= (+ term_to_project_onto13_integralized
                        (- (+ |param0'?93?93| (- param0)))) 0)
                (= (+ term_to_project_onto12_integralized
                        (- (+ |param1'?92?92| (- param1?100?100)))) 0)
                (= (+ term_to_project_onto11_integralized
                        (- (+ |param2'?91?91| (- param2?99?99)))) 0)
                (= (+ term_to_project_onto10_integralized
                        (- (+ |mem_18@pos'?6?6| (- mem_18@pos?102?102)))) 0)
                (= (+ term_to_project_onto9_integralized
                        (- (+ |mem_19@pos'?5?5| (- mem_19@pos?105?105)))) 0)
                (= (+ term_to_project_onto8_integralized
                        (- (+ |return@pos'?4?4| (- return@pos)))) 0)
                (= (+ term_to_project_onto7_integralized
                        (- (+ |param0@pos'?90?90| (- param0@pos)))) 0)
                (= (+ term_to_project_onto6_integralized
                        (- (+ |param1@pos'?89?89| (- param1@pos?98?98)))) 0)
                (= (+ term_to_project_onto5_integralized
                        (- (+ |param2@pos'?88?88| (- param2@pos?97?97)))) 0)
                (= (+ term_to_project_onto4_integralized
                        (- (+ |mem_18@width'?3?3| (- mem_18@width?103?103)))) 0)
                (= (+ term_to_project_onto3_integralized
                        (- (+ |mem_19@width'?2?2| (- mem_19@width?106?106)))) 0)
                (= (+ term_to_project_onto2_integralized
                        (- (+ |return@width'?1?1| (- return@width)))) 0)
                (= (+ term_to_project_onto1_integralized
                        (- (+ |param0@width'?87?87| (- param0@width)))) 0)
                (= (+ term_to_project_onto0_integralized
                        (- (+ |param1@width'?86?86| (- param1@width?96?96)))) 0)
                (= (+ term_to_project_onto_integralized
                        (- (+ |param2@width'?85?85| (- param2@width?95?95)))) 0))))
(check-sat)